(set-logic QF_FPABV)
(declare-fun |c::main::1::IN!0@1#0| () (_ FP 8 24))
(define-fun .3 () RoundingMode roundNearestTiesToEven)
(define-fun .9 () (_ FP 8 24) |c::main::1::IN!0@1#0|)
(define-fun .10 () (_ FP 8 24) (* .3 .9 .9))
(define-fun .11 () (_ FP 8 24) (* .3 .9 .10))
(define-fun .13 () (_ FP 8 24) ((_ asFloat 8 24) roundTowardZero 6.0))
(define-fun .14 () (_ FP 8 24) (/ .3 .11 .13))
(define-fun .15 () (_ FP 8 24) (- .14))
(define-fun .16 () (_ FP 8 24) (+ .3 .9 .15))
(define-fun .17 () (_ FP 8 24) (* .3 .9 .11))
(define-fun .18 () (_ FP 8 24) (* .3 .9 .17))
(define-fun .20 () (_ FP 8 24) ((_ asFloat 8 24) roundTowardZero 120.0))
(define-fun .21 () (_ FP 8 24) (/ .3 .18 .20))
(define-fun .22 () (_ FP 8 24) (+ .3 .16 .21))
(define-fun .23 () (_ FP 8 24) (* .3 .9 .18))
(define-fun .24 () (_ FP 8 24) (* .3 .9 .23))
(define-fun .26 () (_ FP 8 24) ((_ asFloat 8 24) roundTowardZero 5040.0))
(define-fun .27 () (_ FP 8 24) (/ .3 .24 .26))
(define-fun .28 () (_ FP 8 24) (+ .3 .22 .27))
(define-fun .30 () (_ FP 8 24) ((_ asFloat 8 24) roundTowardZero (- 1.00999999046325683594)))
(define-fun .31 () Bool (<= .30 .28))
(define-fun .32 () Bool (not .31))
(define-fun .34 () (_ FP 8 24) ((_ asFloat 8 24) roundTowardZero 1.00999999046325683594))
(define-fun .35 () Bool (<= .28 .34))
(define-fun .36 () Bool (not .35))
(define-fun .38 () (_ FP 8 24) ((_ asFloat 8 24) roundTowardZero 1.57079637050628662109))
(define-fun .39 () Bool (< .9 .38))
(define-fun .41 () (_ FP 8 24) ((_ asFloat 8 24) roundTowardZero (- 1.57079637050628662109)))
(define-fun .42 () Bool (< .41 .9))
(define-fun .43 () Bool (and .39 .42))
(define-fun .44 () Bool (and .36 .43))
(define-fun .45 () Bool (and .32 .44))
(assert .45)
(check-sat)
